50

97 10 292
97 40 345
96 36 297
94 37 353
93 7 299
91 46 280
89 15 319
89 30 338
86 31 313
83 14 310
79 23 239
78 22 257
77 21 341
77 21 330
77 14 249
75 9 272
75 13 325
74 24 280
71 30 332
68 23 308
68 34 239
67 34 303
65 25 287
63 17 338
61 15 352
61 2 270
58 28 279
57 27 278
56 18 247
54 14 354
48 15 333
46 5 312
44 20 289
43 1 359
41 4 162
41 11 349
40 7 130
38 1 174
36 10 341
36 17 218
35 5 138
35 2 356
35 13 203
35 10 346
35 8 316
34 14 166
33 16 248
33 4 147
33 4 210
31 11 316
